p cnf 15 30
1 2 3 0
-1 4 5 0
-2 6 0
-3 7 8 0
4 -5 9 0
-4 10 0
5 -6 11 0
-7 12 0
-8 13 0
6 7 -9 0
-10 14 0
8 9 -11 0
-12 15 0
10 11 -13 0
-14 1 0
12 13 -15 0
1 -4 0
2 -7 0
3 -10 0
-5 -8 0
-6 -9 0
-11 -14 0
-12 -15 0
1 6 12 0
2 8 13 0
3 9 14 0
4 11 15 0
5 10 1 0
7 -2 4 0
-13 -14 -15 0